p cnf 21 25
15 21 -8 0
7 5 -6 0
10 -15 5 0
-3 2 -9 0
-4 -10 -16 0
10 19 21 0
10 9 21 0
4 15 -7 0
-3 -18 17 0
-7 -13 20 0
5 9 11 0
-4 19 -20 0
7 15 -15 0
20 6 4 0
7 1 -11 0
-9 20 -6 0
-6 -9 -18 0
13 -14 -12 0
-21 2 8 0
8 -18 15 0
19 18 21 0
20 -11 -8 0
-6 17 -9 0
19 -11 17 0
12 1 -14 0
